c created by edge2cnf
p cnf 500 3100
-1 -2 0
-1 -3 0
-1 -4 0
-1 -5 0
-2 -3 0
-2 -4 0
-2 -5 0
-3 -4 0
-3 -5 0
-4 -5 0
1 2 3 4 5 0
-6 -7 0
-6 -8 0
-6 -9 0
-6 -10 0
-7 -8 0
-7 -9 0
-7 -10 0
-8 -9 0
-8 -10 0
-9 -10 0
6 7 8 9 10 0
-11 -12 0
-11 -13 0
-11 -14 0
-11 -15 0
-12 -13 0
-12 -14 0
-12 -15 0
-13 -14 0
-13 -15 0
-14 -15 0
11 12 13 14 15 0
-16 -17 0
-16 -18 0
-16 -19 0
-16 -20 0
-17 -18 0
-17 -19 0
-17 -20 0
-18 -19 0
-18 -20 0
-19 -20 0
16 17 18 19 20 0
-21 -22 0
-21 -23 0
-21 -24 0
-21 -25 0
-22 -23 0
-22 -24 0
-22 -25 0
-23 -24 0
-23 -25 0
-24 -25 0
21 22 23 24 25 0
-26 -27 0
-26 -28 0
-26 -29 0
-26 -30 0
-27 -28 0
-27 -29 0
-27 -30 0
-28 -29 0
-28 -30 0
-29 -30 0
26 27 28 29 30 0
-31 -32 0
-31 -33 0
-31 -34 0
-31 -35 0
-32 -33 0
-32 -34 0
-32 -35 0
-33 -34 0
-33 -35 0
-34 -35 0
31 32 33 34 35 0
-36 -37 0
-36 -38 0
-36 -39 0
-36 -40 0
-37 -38 0
-37 -39 0
-37 -40 0
-38 -39 0
-38 -40 0
-39 -40 0
36 37 38 39 40 0
-41 -42 0
-41 -43 0
-41 -44 0
-41 -45 0
-42 -43 0
-42 -44 0
-42 -45 0
-43 -44 0
-43 -45 0
-44 -45 0
41 42 43 44 45 0
-46 -47 0
-46 -48 0
-46 -49 0
-46 -50 0
-47 -48 0
-47 -49 0
-47 -50 0
-48 -49 0
-48 -50 0
-49 -50 0
46 47 48 49 50 0
-51 -52 0
-51 -53 0
-51 -54 0
-51 -55 0
-52 -53 0
-52 -54 0
-52 -55 0
-53 -54 0
-53 -55 0
-54 -55 0
51 52 53 54 55 0
-56 -57 0
-56 -58 0
-56 -59 0
-56 -60 0
-57 -58 0
-57 -59 0
-57 -60 0
-58 -59 0
-58 -60 0
-59 -60 0
56 57 58 59 60 0
-61 -62 0
-61 -63 0
-61 -64 0
-61 -65 0
-62 -63 0
-62 -64 0
-62 -65 0
-63 -64 0
-63 -65 0
-64 -65 0
61 62 63 64 65 0
-66 -67 0
-66 -68 0
-66 -69 0
-66 -70 0
-67 -68 0
-67 -69 0
-67 -70 0
-68 -69 0
-68 -70 0
-69 -70 0
66 67 68 69 70 0
-71 -72 0
-71 -73 0
-71 -74 0
-71 -75 0
-72 -73 0
-72 -74 0
-72 -75 0
-73 -74 0
-73 -75 0
-74 -75 0
71 72 73 74 75 0
-76 -77 0
-76 -78 0
-76 -79 0
-76 -80 0
-77 -78 0
-77 -79 0
-77 -80 0
-78 -79 0
-78 -80 0
-79 -80 0
76 77 78 79 80 0
-81 -82 0
-81 -83 0
-81 -84 0
-81 -85 0
-82 -83 0
-82 -84 0
-82 -85 0
-83 -84 0
-83 -85 0
-84 -85 0
81 82 83 84 85 0
-86 -87 0
-86 -88 0
-86 -89 0
-86 -90 0
-87 -88 0
-87 -89 0
-87 -90 0
-88 -89 0
-88 -90 0
-89 -90 0
86 87 88 89 90 0
-91 -92 0
-91 -93 0
-91 -94 0
-91 -95 0
-92 -93 0
-92 -94 0
-92 -95 0
-93 -94 0
-93 -95 0
-94 -95 0
91 92 93 94 95 0
-96 -97 0
-96 -98 0
-96 -99 0
-96 -100 0
-97 -98 0
-97 -99 0
-97 -100 0
-98 -99 0
-98 -100 0
-99 -100 0
96 97 98 99 100 0
-101 -102 0
-101 -103 0
-101 -104 0
-101 -105 0
-102 -103 0
-102 -104 0
-102 -105 0
-103 -104 0
-103 -105 0
-104 -105 0
101 102 103 104 105 0
-106 -107 0
-106 -108 0
-106 -109 0
-106 -110 0
-107 -108 0
-107 -109 0
-107 -110 0
-108 -109 0
-108 -110 0
-109 -110 0
106 107 108 109 110 0
-111 -112 0
-111 -113 0
-111 -114 0
-111 -115 0
-112 -113 0
-112 -114 0
-112 -115 0
-113 -114 0
-113 -115 0
-114 -115 0
111 112 113 114 115 0
-116 -117 0
-116 -118 0
-116 -119 0
-116 -120 0
-117 -118 0
-117 -119 0
-117 -120 0
-118 -119 0
-118 -120 0
-119 -120 0
116 117 118 119 120 0
-121 -122 0
-121 -123 0
-121 -124 0
-121 -125 0
-122 -123 0
-122 -124 0
-122 -125 0
-123 -124 0
-123 -125 0
-124 -125 0
121 122 123 124 125 0
-126 -127 0
-126 -128 0
-126 -129 0
-126 -130 0
-127 -128 0
-127 -129 0
-127 -130 0
-128 -129 0
-128 -130 0
-129 -130 0
126 127 128 129 130 0
-131 -132 0
-131 -133 0
-131 -134 0
-131 -135 0
-132 -133 0
-132 -134 0
-132 -135 0
-133 -134 0
-133 -135 0
-134 -135 0
131 132 133 134 135 0
-136 -137 0
-136 -138 0
-136 -139 0
-136 -140 0
-137 -138 0
-137 -139 0
-137 -140 0
-138 -139 0
-138 -140 0
-139 -140 0
136 137 138 139 140 0
-141 -142 0
-141 -143 0
-141 -144 0
-141 -145 0
-142 -143 0
-142 -144 0
-142 -145 0
-143 -144 0
-143 -145 0
-144 -145 0
141 142 143 144 145 0
-146 -147 0
-146 -148 0
-146 -149 0
-146 -150 0
-147 -148 0
-147 -149 0
-147 -150 0
-148 -149 0
-148 -150 0
-149 -150 0
146 147 148 149 150 0
-151 -152 0
-151 -153 0
-151 -154 0
-151 -155 0
-152 -153 0
-152 -154 0
-152 -155 0
-153 -154 0
-153 -155 0
-154 -155 0
151 152 153 154 155 0
-156 -157 0
-156 -158 0
-156 -159 0
-156 -160 0
-157 -158 0
-157 -159 0
-157 -160 0
-158 -159 0
-158 -160 0
-159 -160 0
156 157 158 159 160 0
-161 -162 0
-161 -163 0
-161 -164 0
-161 -165 0
-162 -163 0
-162 -164 0
-162 -165 0
-163 -164 0
-163 -165 0
-164 -165 0
161 162 163 164 165 0
-166 -167 0
-166 -168 0
-166 -169 0
-166 -170 0
-167 -168 0
-167 -169 0
-167 -170 0
-168 -169 0
-168 -170 0
-169 -170 0
166 167 168 169 170 0
-171 -172 0
-171 -173 0
-171 -174 0
-171 -175 0
-172 -173 0
-172 -174 0
-172 -175 0
-173 -174 0
-173 -175 0
-174 -175 0
171 172 173 174 175 0
-176 -177 0
-176 -178 0
-176 -179 0
-176 -180 0
-177 -178 0
-177 -179 0
-177 -180 0
-178 -179 0
-178 -180 0
-179 -180 0
176 177 178 179 180 0
-181 -182 0
-181 -183 0
-181 -184 0
-181 -185 0
-182 -183 0
-182 -184 0
-182 -185 0
-183 -184 0
-183 -185 0
-184 -185 0
181 182 183 184 185 0
-186 -187 0
-186 -188 0
-186 -189 0
-186 -190 0
-187 -188 0
-187 -189 0
-187 -190 0
-188 -189 0
-188 -190 0
-189 -190 0
186 187 188 189 190 0
-191 -192 0
-191 -193 0
-191 -194 0
-191 -195 0
-192 -193 0
-192 -194 0
-192 -195 0
-193 -194 0
-193 -195 0
-194 -195 0
191 192 193 194 195 0
-196 -197 0
-196 -198 0
-196 -199 0
-196 -200 0
-197 -198 0
-197 -199 0
-197 -200 0
-198 -199 0
-198 -200 0
-199 -200 0
196 197 198 199 200 0
-201 -202 0
-201 -203 0
-201 -204 0
-201 -205 0
-202 -203 0
-202 -204 0
-202 -205 0
-203 -204 0
-203 -205 0
-204 -205 0
201 202 203 204 205 0
-206 -207 0
-206 -208 0
-206 -209 0
-206 -210 0
-207 -208 0
-207 -209 0
-207 -210 0
-208 -209 0
-208 -210 0
-209 -210 0
206 207 208 209 210 0
-211 -212 0
-211 -213 0
-211 -214 0
-211 -215 0
-212 -213 0
-212 -214 0
-212 -215 0
-213 -214 0
-213 -215 0
-214 -215 0
211 212 213 214 215 0
-216 -217 0
-216 -218 0
-216 -219 0
-216 -220 0
-217 -218 0
-217 -219 0
-217 -220 0
-218 -219 0
-218 -220 0
-219 -220 0
216 217 218 219 220 0
-221 -222 0
-221 -223 0
-221 -224 0
-221 -225 0
-222 -223 0
-222 -224 0
-222 -225 0
-223 -224 0
-223 -225 0
-224 -225 0
221 222 223 224 225 0
-226 -227 0
-226 -228 0
-226 -229 0
-226 -230 0
-227 -228 0
-227 -229 0
-227 -230 0
-228 -229 0
-228 -230 0
-229 -230 0
226 227 228 229 230 0
-231 -232 0
-231 -233 0
-231 -234 0
-231 -235 0
-232 -233 0
-232 -234 0
-232 -235 0
-233 -234 0
-233 -235 0
-234 -235 0
231 232 233 234 235 0
-236 -237 0
-236 -238 0
-236 -239 0
-236 -240 0
-237 -238 0
-237 -239 0
-237 -240 0
-238 -239 0
-238 -240 0
-239 -240 0
236 237 238 239 240 0
-241 -242 0
-241 -243 0
-241 -244 0
-241 -245 0
-242 -243 0
-242 -244 0
-242 -245 0
-243 -244 0
-243 -245 0
-244 -245 0
241 242 243 244 245 0
-246 -247 0
-246 -248 0
-246 -249 0
-246 -250 0
-247 -248 0
-247 -249 0
-247 -250 0
-248 -249 0
-248 -250 0
-249 -250 0
246 247 248 249 250 0
-251 -252 0
-251 -253 0
-251 -254 0
-251 -255 0
-252 -253 0
-252 -254 0
-252 -255 0
-253 -254 0
-253 -255 0
-254 -255 0
251 252 253 254 255 0
-256 -257 0
-256 -258 0
-256 -259 0
-256 -260 0
-257 -258 0
-257 -259 0
-257 -260 0
-258 -259 0
-258 -260 0
-259 -260 0
256 257 258 259 260 0
-261 -262 0
-261 -263 0
-261 -264 0
-261 -265 0
-262 -263 0
-262 -264 0
-262 -265 0
-263 -264 0
-263 -265 0
-264 -265 0
261 262 263 264 265 0
-266 -267 0
-266 -268 0
-266 -269 0
-266 -270 0
-267 -268 0
-267 -269 0
-267 -270 0
-268 -269 0
-268 -270 0
-269 -270 0
266 267 268 269 270 0
-271 -272 0
-271 -273 0
-271 -274 0
-271 -275 0
-272 -273 0
-272 -274 0
-272 -275 0
-273 -274 0
-273 -275 0
-274 -275 0
271 272 273 274 275 0
-276 -277 0
-276 -278 0
-276 -279 0
-276 -280 0
-277 -278 0
-277 -279 0
-277 -280 0
-278 -279 0
-278 -280 0
-279 -280 0
276 277 278 279 280 0
-281 -282 0
-281 -283 0
-281 -284 0
-281 -285 0
-282 -283 0
-282 -284 0
-282 -285 0
-283 -284 0
-283 -285 0
-284 -285 0
281 282 283 284 285 0
-286 -287 0
-286 -288 0
-286 -289 0
-286 -290 0
-287 -288 0
-287 -289 0
-287 -290 0
-288 -289 0
-288 -290 0
-289 -290 0
286 287 288 289 290 0
-291 -292 0
-291 -293 0
-291 -294 0
-291 -295 0
-292 -293 0
-292 -294 0
-292 -295 0
-293 -294 0
-293 -295 0
-294 -295 0
291 292 293 294 295 0
-296 -297 0
-296 -298 0
-296 -299 0
-296 -300 0
-297 -298 0
-297 -299 0
-297 -300 0
-298 -299 0
-298 -300 0
-299 -300 0
296 297 298 299 300 0
-301 -302 0
-301 -303 0
-301 -304 0
-301 -305 0
-302 -303 0
-302 -304 0
-302 -305 0
-303 -304 0
-303 -305 0
-304 -305 0
301 302 303 304 305 0
-306 -307 0
-306 -308 0
-306 -309 0
-306 -310 0
-307 -308 0
-307 -309 0
-307 -310 0
-308 -309 0
-308 -310 0
-309 -310 0
306 307 308 309 310 0
-311 -312 0
-311 -313 0
-311 -314 0
-311 -315 0
-312 -313 0
-312 -314 0
-312 -315 0
-313 -314 0
-313 -315 0
-314 -315 0
311 312 313 314 315 0
-316 -317 0
-316 -318 0
-316 -319 0
-316 -320 0
-317 -318 0
-317 -319 0
-317 -320 0
-318 -319 0
-318 -320 0
-319 -320 0
316 317 318 319 320 0
-321 -322 0
-321 -323 0
-321 -324 0
-321 -325 0
-322 -323 0
-322 -324 0
-322 -325 0
-323 -324 0
-323 -325 0
-324 -325 0
321 322 323 324 325 0
-326 -327 0
-326 -328 0
-326 -329 0
-326 -330 0
-327 -328 0
-327 -329 0
-327 -330 0
-328 -329 0
-328 -330 0
-329 -330 0
326 327 328 329 330 0
-331 -332 0
-331 -333 0
-331 -334 0
-331 -335 0
-332 -333 0
-332 -334 0
-332 -335 0
-333 -334 0
-333 -335 0
-334 -335 0
331 332 333 334 335 0
-336 -337 0
-336 -338 0
-336 -339 0
-336 -340 0
-337 -338 0
-337 -339 0
-337 -340 0
-338 -339 0
-338 -340 0
-339 -340 0
336 337 338 339 340 0
-341 -342 0
-341 -343 0
-341 -344 0
-341 -345 0
-342 -343 0
-342 -344 0
-342 -345 0
-343 -344 0
-343 -345 0
-344 -345 0
341 342 343 344 345 0
-346 -347 0
-346 -348 0
-346 -349 0
-346 -350 0
-347 -348 0
-347 -349 0
-347 -350 0
-348 -349 0
-348 -350 0
-349 -350 0
346 347 348 349 350 0
-351 -352 0
-351 -353 0
-351 -354 0
-351 -355 0
-352 -353 0
-352 -354 0
-352 -355 0
-353 -354 0
-353 -355 0
-354 -355 0
351 352 353 354 355 0
-356 -357 0
-356 -358 0
-356 -359 0
-356 -360 0
-357 -358 0
-357 -359 0
-357 -360 0
-358 -359 0
-358 -360 0
-359 -360 0
356 357 358 359 360 0
-361 -362 0
-361 -363 0
-361 -364 0
-361 -365 0
-362 -363 0
-362 -364 0
-362 -365 0
-363 -364 0
-363 -365 0
-364 -365 0
361 362 363 364 365 0
-366 -367 0
-366 -368 0
-366 -369 0
-366 -370 0
-367 -368 0
-367 -369 0
-367 -370 0
-368 -369 0
-368 -370 0
-369 -370 0
366 367 368 369 370 0
-371 -372 0
-371 -373 0
-371 -374 0
-371 -375 0
-372 -373 0
-372 -374 0
-372 -375 0
-373 -374 0
-373 -375 0
-374 -375 0
371 372 373 374 375 0
-376 -377 0
-376 -378 0
-376 -379 0
-376 -380 0
-377 -378 0
-377 -379 0
-377 -380 0
-378 -379 0
-378 -380 0
-379 -380 0
376 377 378 379 380 0
-381 -382 0
-381 -383 0
-381 -384 0
-381 -385 0
-382 -383 0
-382 -384 0
-382 -385 0
-383 -384 0
-383 -385 0
-384 -385 0
381 382 383 384 385 0
-386 -387 0
-386 -388 0
-386 -389 0
-386 -390 0
-387 -388 0
-387 -389 0
-387 -390 0
-388 -389 0
-388 -390 0
-389 -390 0
386 387 388 389 390 0
-391 -392 0
-391 -393 0
-391 -394 0
-391 -395 0
-392 -393 0
-392 -394 0
-392 -395 0
-393 -394 0
-393 -395 0
-394 -395 0
391 392 393 394 395 0
-396 -397 0
-396 -398 0
-396 -399 0
-396 -400 0
-397 -398 0
-397 -399 0
-397 -400 0
-398 -399 0
-398 -400 0
-399 -400 0
396 397 398 399 400 0
-401 -402 0
-401 -403 0
-401 -404 0
-401 -405 0
-402 -403 0
-402 -404 0
-402 -405 0
-403 -404 0
-403 -405 0
-404 -405 0
401 402 403 404 405 0
-406 -407 0
-406 -408 0
-406 -409 0
-406 -410 0
-407 -408 0
-407 -409 0
-407 -410 0
-408 -409 0
-408 -410 0
-409 -410 0
406 407 408 409 410 0
-411 -412 0
-411 -413 0
-411 -414 0
-411 -415 0
-412 -413 0
-412 -414 0
-412 -415 0
-413 -414 0
-413 -415 0
-414 -415 0
411 412 413 414 415 0
-416 -417 0
-416 -418 0
-416 -419 0
-416 -420 0
-417 -418 0
-417 -419 0
-417 -420 0
-418 -419 0
-418 -420 0
-419 -420 0
416 417 418 419 420 0
-421 -422 0
-421 -423 0
-421 -424 0
-421 -425 0
-422 -423 0
-422 -424 0
-422 -425 0
-423 -424 0
-423 -425 0
-424 -425 0
421 422 423 424 425 0
-426 -427 0
-426 -428 0
-426 -429 0
-426 -430 0
-427 -428 0
-427 -429 0
-427 -430 0
-428 -429 0
-428 -430 0
-429 -430 0
426 427 428 429 430 0
-431 -432 0
-431 -433 0
-431 -434 0
-431 -435 0
-432 -433 0
-432 -434 0
-432 -435 0
-433 -434 0
-433 -435 0
-434 -435 0
431 432 433 434 435 0
-436 -437 0
-436 -438 0
-436 -439 0
-436 -440 0
-437 -438 0
-437 -439 0
-437 -440 0
-438 -439 0
-438 -440 0
-439 -440 0
436 437 438 439 440 0
-441 -442 0
-441 -443 0
-441 -444 0
-441 -445 0
-442 -443 0
-442 -444 0
-442 -445 0
-443 -444 0
-443 -445 0
-444 -445 0
441 442 443 444 445 0
-446 -447 0
-446 -448 0
-446 -449 0
-446 -450 0
-447 -448 0
-447 -449 0
-447 -450 0
-448 -449 0
-448 -450 0
-449 -450 0
446 447 448 449 450 0
-451 -452 0
-451 -453 0
-451 -454 0
-451 -455 0
-452 -453 0
-452 -454 0
-452 -455 0
-453 -454 0
-453 -455 0
-454 -455 0
451 452 453 454 455 0
-456 -457 0
-456 -458 0
-456 -459 0
-456 -460 0
-457 -458 0
-457 -459 0
-457 -460 0
-458 -459 0
-458 -460 0
-459 -460 0
456 457 458 459 460 0
-461 -462 0
-461 -463 0
-461 -464 0
-461 -465 0
-462 -463 0
-462 -464 0
-462 -465 0
-463 -464 0
-463 -465 0
-464 -465 0
461 462 463 464 465 0
-466 -467 0
-466 -468 0
-466 -469 0
-466 -470 0
-467 -468 0
-467 -469 0
-467 -470 0
-468 -469 0
-468 -470 0
-469 -470 0
466 467 468 469 470 0
-471 -472 0
-471 -473 0
-471 -474 0
-471 -475 0
-472 -473 0
-472 -474 0
-472 -475 0
-473 -474 0
-473 -475 0
-474 -475 0
471 472 473 474 475 0
-476 -477 0
-476 -478 0
-476 -479 0
-476 -480 0
-477 -478 0
-477 -479 0
-477 -480 0
-478 -479 0
-478 -480 0
-479 -480 0
476 477 478 479 480 0
-481 -482 0
-481 -483 0
-481 -484 0
-481 -485 0
-482 -483 0
-482 -484 0
-482 -485 0
-483 -484 0
-483 -485 0
-484 -485 0
481 482 483 484 485 0
-486 -487 0
-486 -488 0
-486 -489 0
-486 -490 0
-487 -488 0
-487 -489 0
-487 -490 0
-488 -489 0
-488 -490 0
-489 -490 0
486 487 488 489 490 0
-491 -492 0
-491 -493 0
-491 -494 0
-491 -495 0
-492 -493 0
-492 -494 0
-492 -495 0
-493 -494 0
-493 -495 0
-494 -495 0
491 492 493 494 495 0
-496 -497 0
-496 -498 0
-496 -499 0
-496 -500 0
-497 -498 0
-497 -499 0
-497 -500 0
-498 -499 0
-498 -500 0
-499 -500 0
496 497 498 499 500 0
-1 -16 0
-2 -17 0
-3 -18 0
-4 -19 0
-5 -20 0
-16 -21 0
-17 -22 0
-18 -23 0
-19 -24 0
-20 -25 0
-16 -36 0
-17 -37 0
-18 -38 0
-19 -39 0
-20 -40 0
-21 -31 0
-22 -32 0
-23 -33 0
-24 -34 0
-25 -35 0
-36 -56 0
-37 -57 0
-38 -58 0
-39 -59 0
-40 -60 0
-101 -121 0
-102 -122 0
-103 -123 0
-104 -124 0
-105 -125 0
-111 -116 0
-112 -117 0
-113 -118 0
-114 -119 0
-115 -120 0
-186 -206 0
-187 -207 0
-188 -208 0
-189 -209 0
-190 -210 0
-196 -201 0
-197 -202 0
-198 -203 0
-199 -204 0
-200 -205 0
-206 -216 0
-207 -217 0
-208 -218 0
-209 -219 0
-210 -220 0
-221 -236 0
-222 -237 0
-223 -238 0
-224 -239 0
-225 -240 0
-226 -241 0
-227 -242 0
-228 -243 0
-229 -244 0
-230 -245 0
-276 -281 0
-277 -282 0
-278 -283 0
-279 -284 0
-280 -285 0
-286 -291 0
-287 -292 0
-288 -293 0
-289 -294 0
-290 -295 0
-356 -366 0
-357 -367 0
-358 -368 0
-359 -369 0
-360 -370 0
-381 -386 0
-382 -387 0
-383 -388 0
-384 -389 0
-385 -390 0
-381 -391 0
-382 -392 0
-383 -393 0
-384 -394 0
-385 -395 0
-386 -401 0
-387 -402 0
-388 -403 0
-389 -404 0
-390 -405 0
-391 -396 0
-392 -397 0
-393 -398 0
-394 -399 0
-395 -400 0
-396 -416 0
-397 -417 0
-398 -418 0
-399 -419 0
-400 -420 0
-451 -456 0
-452 -457 0
-453 -458 0
-454 -459 0
-455 -460 0
-476 -496 0
-477 -497 0
-478 -498 0
-479 -499 0
-480 -500 0
-6 -491 0
-7 -492 0
-8 -493 0
-9 -494 0
-10 -495 0
-6 -496 0
-7 -497 0
-8 -498 0
-9 -499 0
-10 -500 0
-1 -31 0
-2 -32 0
-3 -33 0
-4 -34 0
-5 -35 0
-1 -181 0
-2 -182 0
-3 -183 0
-4 -184 0
-5 -185 0
-1 -186 0
-2 -187 0
-3 -188 0
-4 -189 0
-5 -190 0
-1 -251 0
-2 -252 0
-3 -253 0
-4 -254 0
-5 -255 0
-1 -296 0
-2 -297 0
-3 -298 0
-4 -299 0
-5 -300 0
-1 -301 0
-2 -302 0
-3 -303 0
-4 -304 0
-5 -305 0
-1 -306 0
-2 -307 0
-3 -308 0
-4 -309 0
-5 -310 0
-1 -376 0
-2 -377 0
-3 -378 0
-4 -379 0
-5 -380 0
-1 -396 0
-2 -397 0
-3 -398 0
-4 -399 0
-5 -400 0
-1 -406 0
-2 -407 0
-3 -408 0
-4 -409 0
-5 -410 0
-1 -436 0
-2 -437 0
-3 -438 0
-4 -439 0
-5 -440 0
-1 -441 0
-2 -442 0
-3 -443 0
-4 -444 0
-5 -445 0
-6 -36 0
-7 -37 0
-8 -38 0
-9 -39 0
-10 -40 0
-6 -61 0
-7 -62 0
-8 -63 0
-9 -64 0
-10 -65 0
-6 -111 0
-7 -112 0
-8 -113 0
-9 -114 0
-10 -115 0
-6 -126 0
-7 -127 0
-8 -128 0
-9 -129 0
-10 -130 0
-6 -251 0
-7 -252 0
-8 -253 0
-9 -254 0
-10 -255 0
-11 -121 0
-12 -122 0
-13 -123 0
-14 -124 0
-15 -125 0
-11 -201 0
-12 -202 0
-13 -203 0
-14 -204 0
-15 -205 0
-11 -221 0
-12 -222 0
-13 -223 0
-14 -224 0
-15 -225 0
-11 -226 0
-12 -227 0
-13 -228 0
-14 -229 0
-15 -230 0
-11 -261 0
-12 -262 0
-13 -263 0
-14 -264 0
-15 -265 0
-11 -326 0
-12 -327 0
-13 -328 0
-14 -329 0
-15 -330 0
-11 -331 0
-12 -332 0
-13 -333 0
-14 -334 0
-15 -335 0
-11 -356 0
-12 -357 0
-13 -358 0
-14 -359 0
-15 -360 0
-11 -396 0
-12 -397 0
-13 -398 0
-14 -399 0
-15 -400 0
-11 -476 0
-12 -477 0
-13 -478 0
-14 -479 0
-15 -480 0
-16 -96 0
-17 -97 0
-18 -98 0
-19 -99 0
-20 -100 0
-16 -116 0
-17 -117 0
-18 -118 0
-19 -119 0
-20 -120 0
-16 -136 0
-17 -137 0
-18 -138 0
-19 -139 0
-20 -140 0
-16 -231 0
-17 -232 0
-18 -233 0
-19 -234 0
-20 -235 0
-16 -266 0
-17 -267 0
-18 -268 0
-19 -269 0
-20 -270 0
-16 -451 0
-17 -452 0
-18 -453 0
-19 -454 0
-20 -455 0
-16 -461 0
-17 -462 0
-18 -463 0
-19 -464 0
-20 -465 0
-21 -96 0
-22 -97 0
-23 -98 0
-24 -99 0
-25 -100 0
-21 -146 0
-22 -147 0
-23 -148 0
-24 -149 0
-25 -150 0
-21 -211 0
-22 -212 0
-23 -213 0
-24 -214 0
-25 -215 0
-21 -216 0
-22 -217 0
-23 -218 0
-24 -219 0
-25 -220 0
-21 -236 0
-22 -237 0
-23 -238 0
-24 -239 0
-25 -240 0
-21 -411 0
-22 -412 0
-23 -413 0
-24 -414 0
-25 -415 0
-21 -436 0
-22 -437 0
-23 -438 0
-24 -439 0
-25 -440 0
-26 -206 0
-27 -207 0
-28 -208 0
-29 -209 0
-30 -210 0
-26 -266 0
-27 -267 0
-28 -268 0
-29 -269 0
-30 -270 0
-26 -331 0
-27 -332 0
-28 -333 0
-29 -334 0
-30 -335 0
-26 -436 0
-27 -437 0
-28 -438 0
-29 -439 0
-30 -440 0
-26 -446 0
-27 -447 0
-28 -448 0
-29 -449 0
-30 -450 0
-26 -456 0
-27 -457 0
-28 -458 0
-29 -459 0
-30 -460 0
-31 -61 0
-32 -62 0
-33 -63 0
-34 -64 0
-35 -65 0
-31 -106 0
-32 -107 0
-33 -108 0
-34 -109 0
-35 -110 0
-31 -351 0
-32 -352 0
-33 -353 0
-34 -354 0
-35 -355 0
-31 -361 0
-32 -362 0
-33 -363 0
-34 -364 0
-35 -365 0
-31 -436 0
-32 -437 0
-33 -438 0
-34 -439 0
-35 -440 0
-31 -461 0
-32 -462 0
-33 -463 0
-34 -464 0
-35 -465 0
-31 -486 0
-32 -487 0
-33 -488 0
-34 -489 0
-35 -490 0
-36 -101 0
-37 -102 0
-38 -103 0
-39 -104 0
-40 -105 0
-36 -136 0
-37 -137 0
-38 -138 0
-39 -139 0
-40 -140 0
-36 -146 0
-37 -147 0
-38 -148 0
-39 -149 0
-40 -150 0
-36 -246 0
-37 -247 0
-38 -248 0
-39 -249 0
-40 -250 0
-36 -431 0
-37 -432 0
-38 -433 0
-39 -434 0
-40 -435 0
-41 -256 0
-42 -257 0
-43 -258 0
-44 -259 0
-45 -260 0
-41 -341 0
-42 -342 0
-43 -343 0
-44 -344 0
-45 -345 0
-41 -346 0
-42 -347 0
-43 -348 0
-44 -349 0
-45 -350 0
-46 -111 0
-47 -112 0
-48 -113 0
-49 -114 0
-50 -115 0
-46 -221 0
-47 -222 0
-48 -223 0
-49 -224 0
-50 -225 0
-46 -256 0
-47 -257 0
-48 -258 0
-49 -259 0
-50 -260 0
-46 -426 0
-47 -427 0
-48 -428 0
-49 -429 0
-50 -430 0
-46 -461 0
-47 -462 0
-48 -463 0
-49 -464 0
-50 -465 0
-46 -476 0
-47 -477 0
-48 -478 0
-49 -479 0
-50 -480 0
-46 -496 0
-47 -497 0
-48 -498 0
-49 -499 0
-50 -500 0
-51 -101 0
-52 -102 0
-53 -103 0
-54 -104 0
-55 -105 0
-51 -156 0
-52 -157 0
-53 -158 0
-54 -159 0
-55 -160 0
-51 -221 0
-52 -222 0
-53 -223 0
-54 -224 0
-55 -225 0
-51 -416 0
-52 -417 0
-53 -418 0
-54 -419 0
-55 -420 0
-51 -426 0
-52 -427 0
-53 -428 0
-54 -429 0
-55 -430 0
-56 -126 0
-57 -127 0
-58 -128 0
-59 -129 0
-60 -130 0
-56 -131 0
-57 -132 0
-58 -133 0
-59 -134 0
-60 -135 0
-56 -241 0
-57 -242 0
-58 -243 0
-59 -244 0
-60 -245 0
-56 -256 0
-57 -257 0
-58 -258 0
-59 -259 0
-60 -260 0
-56 -401 0
-57 -402 0
-58 -403 0
-59 -404 0
-60 -405 0
-61 -191 0
-62 -192 0
-63 -193 0
-64 -194 0
-65 -195 0
-61 -221 0
-62 -222 0
-63 -223 0
-64 -224 0
-65 -225 0
-61 -251 0
-62 -252 0
-63 -253 0
-64 -254 0
-65 -255 0
-61 -266 0
-62 -267 0
-63 -268 0
-64 -269 0
-65 -270 0
-61 -321 0
-62 -322 0
-63 -323 0
-64 -324 0
-65 -325 0
-61 -346 0
-62 -347 0
-63 -348 0
-64 -349 0
-65 -350 0
-61 -381 0
-62 -382 0
-63 -383 0
-64 -384 0
-65 -385 0
-61 -386 0
-62 -387 0
-63 -388 0
-64 -389 0
-65 -390 0
-61 -401 0
-62 -402 0
-63 -403 0
-64 -404 0
-65 -405 0
-61 -431 0
-62 -432 0
-63 -433 0
-64 -434 0
-65 -435 0
-61 -496 0
-62 -497 0
-63 -498 0
-64 -499 0
-65 -500 0
-66 -136 0
-67 -137 0
-68 -138 0
-69 -139 0
-70 -140 0
-66 -231 0
-67 -232 0
-68 -233 0
-69 -234 0
-70 -235 0
-66 -276 0
-67 -277 0
-68 -278 0
-69 -279 0
-70 -280 0
-66 -366 0
-67 -367 0
-68 -368 0
-69 -369 0
-70 -370 0
-66 -391 0
-67 -392 0
-68 -393 0
-69 -394 0
-70 -395 0
-66 -476 0
-67 -477 0
-68 -478 0
-69 -479 0
-70 -480 0
-71 -111 0
-72 -112 0
-73 -113 0
-74 -114 0
-75 -115 0
-71 -216 0
-72 -217 0
-73 -218 0
-74 -219 0
-75 -220 0
-71 -396 0
-72 -397 0
-73 -398 0
-74 -399 0
-75 -400 0
-71 -416 0
-72 -417 0
-73 -418 0
-74 -419 0
-75 -420 0
-71 -431 0
-72 -432 0
-73 -433 0
-74 -434 0
-75 -435 0
-71 -466 0
-72 -467 0
-73 -468 0
-74 -469 0
-75 -470 0
-76 -101 0
-77 -102 0
-78 -103 0
-79 -104 0
-80 -105 0
-76 -216 0
-77 -217 0
-78 -218 0
-79 -219 0
-80 -220 0
-76 -231 0
-77 -232 0
-78 -233 0
-79 -234 0
-80 -235 0
-76 -321 0
-77 -322 0
-78 -323 0
-79 -324 0
-80 -325 0
-76 -351 0
-77 -352 0
-78 -353 0
-79 -354 0
-80 -355 0
-76 -361 0
-77 -362 0
-78 -363 0
-79 -364 0
-80 -365 0
-76 -411 0
-77 -412 0
-78 -413 0
-79 -414 0
-80 -415 0
-81 -216 0
-82 -217 0
-83 -218 0
-84 -219 0
-85 -220 0
-81 -236 0
-82 -237 0
-83 -238 0
-84 -239 0
-85 -240 0
-81 -256 0
-82 -257 0
-83 -258 0
-84 -259 0
-85 -260 0
-81 -321 0
-82 -322 0
-83 -323 0
-84 -324 0
-85 -325 0
-81 -376 0
-82 -377 0
-83 -378 0
-84 -379 0
-85 -380 0
-81 -401 0
-82 -402 0
-83 -403 0
-84 -404 0
-85 -405 0
-81 -446 0
-82 -447 0
-83 -448 0
-84 -449 0
-85 -450 0
-81 -461 0
-82 -462 0
-83 -463 0
-84 -464 0
-85 -465 0
-86 -216 0
-87 -217 0
-88 -218 0
-89 -219 0
-90 -220 0
-86 -226 0
-87 -227 0
-88 -228 0
-89 -229 0
-90 -230 0
-86 -396 0
-87 -397 0
-88 -398 0
-89 -399 0
-90 -400 0
-86 -421 0
-87 -422 0
-88 -423 0
-89 -424 0
-90 -425 0
-86 -496 0
-87 -497 0
-88 -498 0
-89 -499 0
-90 -500 0
-91 -266 0
-92 -267 0
-93 -268 0
-94 -269 0
-95 -270 0
-91 -476 0
-92 -477 0
-93 -478 0
-94 -479 0
-95 -480 0
-91 -496 0
-92 -497 0
-93 -498 0
-94 -499 0
-95 -500 0
-96 -201 0
-97 -202 0
-98 -203 0
-99 -204 0
-100 -205 0
-96 -381 0
-97 -382 0
-98 -383 0
-99 -384 0
-100 -385 0
-96 -436 0
-97 -437 0
-98 -438 0
-99 -439 0
-100 -440 0
-96 -461 0
-97 -462 0
-98 -463 0
-99 -464 0
-100 -465 0
-101 -136 0
-102 -137 0
-103 -138 0
-104 -139 0
-105 -140 0
-101 -186 0
-102 -187 0
-103 -188 0
-104 -189 0
-105 -190 0
-101 -276 0
-102 -277 0
-103 -278 0
-104 -279 0
-105 -280 0
-101 -376 0
-102 -377 0
-103 -378 0
-104 -379 0
-105 -380 0
-101 -426 0
-102 -427 0
-103 -428 0
-104 -429 0
-105 -430 0
-106 -146 0
-107 -147 0
-108 -148 0
-109 -149 0
-110 -150 0
-106 -186 0
-107 -187 0
-108 -188 0
-109 -189 0
-110 -190 0
-106 -211 0
-107 -212 0
-108 -213 0
-109 -214 0
-110 -215 0
-106 -306 0
-107 -307 0
-108 -308 0
-109 -309 0
-110 -310 0
-106 -311 0
-107 -312 0
-108 -313 0
-109 -314 0
-110 -315 0
-106 -321 0
-107 -322 0
-108 -323 0
-109 -324 0
-110 -325 0
-106 -421 0
-107 -422 0
-108 -423 0
-109 -424 0
-110 -425 0
-106 -446 0
-107 -447 0
-108 -448 0
-109 -449 0
-110 -450 0
-111 -156 0
-112 -157 0
-113 -158 0
-114 -159 0
-115 -160 0
-111 -241 0
-112 -242 0
-113 -243 0
-114 -244 0
-115 -245 0
-111 -266 0
-112 -267 0
-113 -268 0
-114 -269 0
-115 -270 0
-111 -281 0
-112 -282 0
-113 -283 0
-114 -284 0
-115 -285 0
-111 -286 0
-112 -287 0
-113 -288 0
-114 -289 0
-115 -290 0
-111 -311 0
-112 -312 0
-113 -313 0
-114 -314 0
-115 -315 0
-111 -321 0
-112 -322 0
-113 -323 0
-114 -324 0
-115 -325 0
-111 -331 0
-112 -332 0
-113 -333 0
-114 -334 0
-115 -335 0
-111 -416 0
-112 -417 0
-113 -418 0
-114 -419 0
-115 -420 0
-111 -486 0
-112 -487 0
-113 -488 0
-114 -489 0
-115 -490 0
-116 -176 0
-117 -177 0
-118 -178 0
-119 -179 0
-120 -180 0
-116 -231 0
-117 -232 0
-118 -233 0
-119 -234 0
-120 -235 0
-116 -266 0
-117 -267 0
-118 -268 0
-119 -269 0
-120 -270 0
-116 -306 0
-117 -307 0
-118 -308 0
-119 -309 0
-120 -310 0
-116 -421 0
-117 -422 0
-118 -423 0
-119 -424 0
-120 -425 0
-116 -436 0
-117 -437 0
-118 -438 0
-119 -439 0
-120 -440 0
-116 -491 0
-117 -492 0
-118 -493 0
-119 -494 0
-120 -495 0
-121 -176 0
-122 -177 0
-123 -178 0
-124 -179 0
-125 -180 0
-121 -276 0
-122 -277 0
-123 -278 0
-124 -279 0
-125 -280 0
-121 -281 0
-122 -282 0
-123 -283 0
-124 -284 0
-125 -285 0
-121 -386 0
-122 -387 0
-123 -388 0
-124 -389 0
-125 -390 0
-121 -406 0
-122 -407 0
-123 -408 0
-124 -409 0
-125 -410 0
-121 -441 0
-122 -442 0
-123 -443 0
-124 -444 0
-125 -445 0
-121 -451 0
-122 -452 0
-123 -453 0
-124 -454 0
-125 -455 0
-121 -471 0
-122 -472 0
-123 -473 0
-124 -474 0
-125 -475 0
-126 -251 0
-127 -252 0
-128 -253 0
-129 -254 0
-130 -255 0
-126 -326 0
-127 -327 0
-128 -328 0
-129 -329 0
-130 -330 0
-126 -461 0
-127 -462 0
-128 -463 0
-129 -464 0
-130 -465 0
-126 -491 0
-127 -492 0
-128 -493 0
-129 -494 0
-130 -495 0
-131 -211 0
-132 -212 0
-133 -213 0
-134 -214 0
-135 -215 0
-131 -221 0
-132 -222 0
-133 -223 0
-134 -224 0
-135 -225 0
-131 -231 0
-132 -232 0
-133 -233 0
-134 -234 0
-135 -235 0
-131 -326 0
-132 -327 0
-133 -328 0
-134 -329 0
-135 -330 0
-131 -371 0
-132 -372 0
-133 -373 0
-134 -374 0
-135 -375 0
-131 -406 0
-132 -407 0
-133 -408 0
-134 -409 0
-135 -410 0
-131 -436 0
-132 -437 0
-133 -438 0
-134 -439 0
-135 -440 0
-131 -441 0
-132 -442 0
-133 -443 0
-134 -444 0
-135 -445 0
-131 -456 0
-132 -457 0
-133 -458 0
-134 -459 0
-135 -460 0
-131 -461 0
-132 -462 0
-133 -463 0
-134 -464 0
-135 -465 0
-136 -176 0
-137 -177 0
-138 -178 0
-139 -179 0
-140 -180 0
-136 -181 0
-137 -182 0
-138 -183 0
-139 -184 0
-140 -185 0
-136 -206 0
-137 -207 0
-138 -208 0
-139 -209 0
-140 -210 0
-136 -321 0
-137 -322 0
-138 -323 0
-139 -324 0
-140 -325 0
-136 -361 0
-137 -362 0
-138 -363 0
-139 -364 0
-140 -365 0
-136 -371 0
-137 -372 0
-138 -373 0
-139 -374 0
-140 -375 0
-136 -381 0
-137 -382 0
-138 -383 0
-139 -384 0
-140 -385 0
-141 -181 0
-142 -182 0
-143 -183 0
-144 -184 0
-145 -185 0
-141 -261 0
-142 -262 0
-143 -263 0
-144 -264 0
-145 -265 0
-141 -311 0
-142 -312 0
-143 -313 0
-144 -314 0
-145 -315 0
-141 -331 0
-142 -332 0
-143 -333 0
-144 -334 0
-145 -335 0
-141 -366 0
-142 -367 0
-143 -368 0
-144 -369 0
-145 -370 0
-141 -451 0
-142 -452 0
-143 -453 0
-144 -454 0
-145 -455 0
-146 -181 0
-147 -182 0
-148 -183 0
-149 -184 0
-150 -185 0
-146 -351 0
-147 -352 0
-148 -353 0
-149 -354 0
-150 -355 0
-146 -361 0
-147 -362 0
-148 -363 0
-149 -364 0
-150 -365 0
-146 -451 0
-147 -452 0
-148 -453 0
-149 -454 0
-150 -455 0
-151 -206 0
-152 -207 0
-153 -208 0
-154 -209 0
-155 -210 0
-151 -226 0
-152 -227 0
-153 -228 0
-154 -229 0
-155 -230 0
-151 -391 0
-152 -392 0
-153 -393 0
-154 -394 0
-155 -395 0
-151 -451 0
-152 -452 0
-153 -453 0
-154 -454 0
-155 -455 0
-156 -246 0
-157 -247 0
-158 -248 0
-159 -249 0
-160 -250 0
-166 -251 0
-167 -252 0
-168 -253 0
-169 -254 0
-170 -255 0
-166 -276 0
-167 -277 0
-168 -278 0
-169 -279 0
-170 -280 0
-166 -396 0
-167 -397 0
-168 -398 0
-169 -399 0
-170 -400 0
-171 -201 0
-172 -202 0
-173 -203 0
-174 -204 0
-175 -205 0
-171 -256 0
-172 -257 0
-173 -258 0
-174 -259 0
-175 -260 0
-171 -336 0
-172 -337 0
-173 -338 0
-174 -339 0
-175 -340 0
-171 -361 0
-172 -362 0
-173 -363 0
-174 -364 0
-175 -365 0
-171 -401 0
-172 -402 0
-173 -403 0
-174 -404 0
-175 -405 0
-176 -261 0
-177 -262 0
-178 -263 0
-179 -264 0
-180 -265 0
-176 -306 0
-177 -307 0
-178 -308 0
-179 -309 0
-180 -310 0
-176 -366 0
-177 -367 0
-178 -368 0
-179 -369 0
-180 -370 0
-176 -416 0
-177 -417 0
-178 -418 0
-179 -419 0
-180 -420 0
-181 -246 0
-182 -247 0
-183 -248 0
-184 -249 0
-185 -250 0
-181 -321 0
-182 -322 0
-183 -323 0
-184 -324 0
-185 -325 0
-181 -331 0
-182 -332 0
-183 -333 0
-184 -334 0
-185 -335 0
-181 -341 0
-182 -342 0
-183 -343 0
-184 -344 0
-185 -345 0
-181 -411 0
-182 -412 0
-183 -413 0
-184 -414 0
-185 -415 0
-186 -236 0
-187 -237 0
-188 -238 0
-189 -239 0
-190 -240 0
-186 -271 0
-187 -272 0
-188 -273 0
-189 -274 0
-190 -275 0
-186 -281 0
-187 -282 0
-188 -283 0
-189 -284 0
-190 -285 0
-186 -326 0
-187 -327 0
-188 -328 0
-189 -329 0
-190 -330 0
-186 -331 0
-187 -332 0
-188 -333 0
-189 -334 0
-190 -335 0
-186 -371 0
-187 -372 0
-188 -373 0
-189 -374 0
-190 -375 0
-186 -386 0
-187 -387 0
-188 -388 0
-189 -389 0
-190 -390 0
-186 -456 0
-187 -457 0
-188 -458 0
-189 -459 0
-190 -460 0
-186 -471 0
-187 -472 0
-188 -473 0
-189 -474 0
-190 -475 0
-186 -476 0
-187 -477 0
-188 -478 0
-189 -479 0
-190 -480 0
-191 -311 0
-192 -312 0
-193 -313 0
-194 -314 0
-195 -315 0
-191 -351 0
-192 -352 0
-193 -353 0
-194 -354 0
-195 -355 0
-191 -451 0
-192 -452 0
-193 -453 0
-194 -454 0
-195 -455 0
-196 -236 0
-197 -237 0
-198 -238 0
-199 -239 0
-200 -240 0
-196 -306 0
-197 -307 0
-198 -308 0
-199 -309 0
-200 -310 0
-196 -311 0
-197 -312 0
-198 -313 0
-199 -314 0
-200 -315 0
-196 -356 0
-197 -357 0
-198 -358 0
-199 -359 0
-200 -360 0
-196 -471 0
-197 -472 0
-198 -473 0
-199 -474 0
-200 -475 0
-201 -231 0
-202 -232 0
-203 -233 0
-204 -234 0
-205 -235 0
-201 -246 0
-202 -247 0
-203 -248 0
-204 -249 0
-205 -250 0
-201 -401 0
-202 -402 0
-203 -403 0
-204 -404 0
-205 -405 0
-201 -426 0
-202 -427 0
-203 -428 0
-204 -429 0
-205 -430 0
-201 -451 0
-202 -452 0
-203 -453 0
-204 -454 0
-205 -455 0
-206 -246 0
-207 -247 0
-208 -248 0
-209 -249 0
-210 -250 0
-206 -261 0
-207 -262 0
-208 -263 0
-209 -264 0
-210 -265 0
-206 -296 0
-207 -297 0
-208 -298 0
-209 -299 0
-210 -300 0
-206 -321 0
-207 -322 0
-208 -323 0
-209 -324 0
-210 -325 0
-206 -381 0
-207 -382 0
-208 -383 0
-209 -384 0
-210 -385 0
-206 -471 0
-207 -472 0
-208 -473 0
-209 -474 0
-210 -475 0
-206 -486 0
-207 -487 0
-208 -488 0
-209 -489 0
-210 -490 0
-211 -241 0
-212 -242 0
-213 -243 0
-214 -244 0
-215 -245 0
-211 -306 0
-212 -307 0
-213 -308 0
-214 -309 0
-215 -310 0
-211 -371 0
-212 -372 0
-213 -373 0
-214 -374 0
-215 -375 0
-211 -411 0
-212 -412 0
-213 -413 0
-214 -414 0
-215 -415 0
-211 -436 0
-212 -437 0
-213 -438 0
-214 -439 0
-215 -440 0
-216 -281 0
-217 -282 0
-218 -283 0
-219 -284 0
-220 -285 0
-216 -381 0
-217 -382 0
-218 -383 0
-219 -384 0
-220 -385 0
-216 -391 0
-217 -392 0
-218 -393 0
-219 -394 0
-220 -395 0
-216 -401 0
-217 -402 0
-218 -403 0
-219 -404 0
-220 -405 0
-216 -406 0
-217 -407 0
-218 -408 0
-219 -409 0
-220 -410 0
-216 -421 0
-217 -422 0
-218 -423 0
-219 -424 0
-220 -425 0
-216 -456 0
-217 -457 0
-218 -458 0
-219 -459 0
-220 -460 0
-216 -486 0
-217 -487 0
-218 -488 0
-219 -489 0
-220 -490 0
-216 -496 0
-217 -497 0
-218 -498 0
-219 -499 0
-220 -500 0
-221 -246 0
-222 -247 0
-223 -248 0
-224 -249 0
-225 -250 0
-221 -251 0
-222 -252 0
-223 -253 0
-224 -254 0
-225 -255 0
-221 -306 0
-222 -307 0
-223 -308 0
-224 -309 0
-225 -310 0
-221 -316 0
-222 -317 0
-223 -318 0
-224 -319 0
-225 -320 0
-221 -371 0
-222 -372 0
-223 -373 0
-224 -374 0
-225 -375 0
-221 -381 0
-222 -382 0
-223 -383 0
-224 -384 0
-225 -385 0
-221 -466 0
-222 -467 0
-223 -468 0
-224 -469 0
-225 -470 0
-226 -251 0
-227 -252 0
-228 -253 0
-229 -254 0
-230 -255 0
-226 -306 0
-227 -307 0
-228 -308 0
-229 -309 0
-230 -310 0
-226 -346 0
-227 -347 0
-228 -348 0
-229 -349 0
-230 -350 0
-226 -391 0
-227 -392 0
-228 -393 0
-229 -394 0
-230 -395 0
-226 -426 0
-227 -427 0
-228 -428 0
-229 -429 0
-230 -430 0
-231 -261 0
-232 -262 0
-233 -263 0
-234 -264 0
-235 -265 0
-231 -496 0
-232 -497 0
-233 -498 0
-234 -499 0
-235 -500 0
-236 -261 0
-237 -262 0
-238 -263 0
-239 -264 0
-240 -265 0
-241 -291 0
-242 -292 0
-243 -293 0
-244 -294 0
-245 -295 0
-241 -316 0
-242 -317 0
-243 -318 0
-244 -319 0
-245 -320 0
-241 -416 0
-242 -417 0
-243 -418 0
-244 -419 0
-245 -420 0
-241 -441 0
-242 -442 0
-243 -443 0
-244 -444 0
-245 -445 0
-241 -456 0
-242 -457 0
-243 -458 0
-244 -459 0
-245 -460 0
-246 -336 0
-247 -337 0
-248 -338 0
-249 -339 0
-250 -340 0
-246 -381 0
-247 -382 0
-248 -383 0
-249 -384 0
-250 -385 0
-246 -426 0
-247 -427 0
-248 -428 0
-249 -429 0
-250 -430 0
-251 -456 0
-252 -457 0
-253 -458 0
-254 -459 0
-255 -460 0
-251 -491 0
-252 -492 0
-253 -493 0
-254 -494 0
-255 -495 0
-261 -296 0
-262 -297 0
-263 -298 0
-264 -299 0
-265 -300 0
-261 -351 0
-262 -352 0
-263 -353 0
-264 -354 0
-265 -355 0
-261 -436 0
-262 -437 0
-263 -438 0
-264 -439 0
-265 -440 0
-266 -291 0
-267 -292 0
-268 -293 0
-269 -294 0
-270 -295 0
-266 -316 0
-267 -317 0
-268 -318 0
-269 -319 0
-270 -320 0
-266 -376 0
-267 -377 0
-268 -378 0
-269 -379 0
-270 -380 0
-266 -441 0
-267 -442 0
-268 -443 0
-269 -444 0
-270 -445 0
-266 -456 0
-267 -457 0
-268 -458 0
-269 -459 0
-270 -460 0
-266 -486 0
-267 -487 0
-268 -488 0
-269 -489 0
-270 -490 0
-271 -391 0
-272 -392 0
-273 -393 0
-274 -394 0
-275 -395 0
-276 -416 0
-277 -417 0
-278 -418 0
-279 -419 0
-280 -420 0
-281 -341 0
-282 -342 0
-283 -343 0
-284 -344 0
-285 -345 0
-281 -446 0
-282 -447 0
-283 -448 0
-284 -449 0
-285 -450 0
-286 -466 0
-287 -467 0
-288 -468 0
-289 -469 0
-290 -470 0
-291 -381 0
-292 -382 0
-293 -383 0
-294 -384 0
-295 -385 0
-291 -466 0
-292 -467 0
-293 -468 0
-294 -469 0
-295 -470 0
-296 -331 0
-297 -332 0
-298 -333 0
-299 -334 0
-300 -335 0
-296 -336 0
-297 -337 0
-298 -338 0
-299 -339 0
-300 -340 0
-296 -386 0
-297 -387 0
-298 -388 0
-299 -389 0
-300 -390 0
-296 -436 0
-297 -437 0
-298 -438 0
-299 -439 0
-300 -440 0
-296 -441 0
-297 -442 0
-298 -443 0
-299 -444 0
-300 -445 0
-301 -326 0
-302 -327 0
-303 -328 0
-304 -329 0
-305 -330 0
-301 -381 0
-302 -382 0
-303 -383 0
-304 -384 0
-305 -385 0
-301 -401 0
-302 -402 0
-303 -403 0
-304 -404 0
-305 -405 0
-301 -446 0
-302 -447 0
-303 -448 0
-304 -449 0
-305 -450 0
-301 -451 0
-302 -452 0
-303 -453 0
-304 -454 0
-305 -455 0
-306 -396 0
-307 -397 0
-308 -398 0
-309 -399 0
-310 -400 0
-306 -411 0
-307 -412 0
-308 -413 0
-309 -414 0
-310 -415 0
-306 -451 0
-307 -452 0
-308 -453 0
-309 -454 0
-310 -455 0
-311 -426 0
-312 -427 0
-313 -428 0
-314 -429 0
-315 -430 0
-311 -431 0
-312 -432 0
-313 -433 0
-314 -434 0
-315 -435 0
-311 -471 0
-312 -472 0
-313 -473 0
-314 -474 0
-315 -475 0
-311 -481 0
-312 -482 0
-313 -483 0
-314 -484 0
-315 -485 0
-316 -421 0
-317 -422 0
-318 -423 0
-319 -424 0
-320 -425 0
-316 -491 0
-317 -492 0
-318 -493 0
-319 -494 0
-320 -495 0
-321 -481 0
-322 -482 0
-323 -483 0
-324 -484 0
-325 -485 0
-326 -481 0
-327 -482 0
-328 -483 0
-329 -484 0
-330 -485 0
-326 -491 0
-327 -492 0
-328 -493 0
-329 -494 0
-330 -495 0
-331 -381 0
-332 -382 0
-333 -383 0
-334 -384 0
-335 -385 0
-331 -411 0
-332 -412 0
-333 -413 0
-334 -414 0
-335 -415 0
-331 -441 0
-332 -442 0
-333 -443 0
-334 -444 0
-335 -445 0
-331 -456 0
-332 -457 0
-333 -458 0
-334 -459 0
-335 -460 0
-331 -461 0
-332 -462 0
-333 -463 0
-334 -464 0
-335 -465 0
-336 -371 0
-337 -372 0
-338 -373 0
-339 -374 0
-340 -375 0
-341 -471 0
-342 -472 0
-343 -473 0
-344 -474 0
-345 -475 0
-346 -376 0
-347 -377 0
-348 -378 0
-349 -379 0
-350 -380 0
-346 -386 0
-347 -387 0
-348 -388 0
-349 -389 0
-350 -390 0
-346 -436 0
-347 -437 0
-348 -438 0
-349 -439 0
-350 -440 0
-346 -451 0
-347 -452 0
-348 -453 0
-349 -454 0
-350 -455 0
-351 -411 0
-352 -412 0
-353 -413 0
-354 -414 0
-355 -415 0
-351 -421 0
-352 -422 0
-353 -423 0
-354 -424 0
-355 -425 0
-351 -456 0
-352 -457 0
-353 -458 0
-354 -459 0
-355 -460 0
-356 -431 0
-357 -432 0
-358 -433 0
-359 -434 0
-360 -435 0
-356 -496 0
-357 -497 0
-358 -498 0
-359 -499 0
-360 -500 0
-361 -406 0
-362 -407 0
-363 -408 0
-364 -409 0
-365 -410 0
-361 -416 0
-362 -417 0
-363 -418 0
-364 -419 0
-365 -420 0
-361 -421 0
-362 -422 0
-363 -423 0
-364 -424 0
-365 -425 0
-361 -446 0
-362 -447 0
-363 -448 0
-364 -449 0
-365 -450 0
-366 -411 0
-367 -412 0
-368 -413 0
-369 -414 0
-370 -415 0
-366 -426 0
-367 -427 0
-368 -428 0
-369 -429 0
-370 -430 0
-371 -416 0
-372 -417 0
-373 -418 0
-374 -419 0
-375 -420 0
-376 -406 0
-377 -407 0
-378 -408 0
-379 -409 0
-380 -410 0
-376 -441 0
-377 -442 0
-378 -443 0
-379 -444 0
-380 -445 0
-376 -476 0
-377 -477 0
-378 -478 0
-379 -479 0
-380 -480 0
-381 -411 0
-382 -412 0
-383 -413 0
-384 -414 0
-385 -415 0
-381 -496 0
-382 -497 0
-383 -498 0
-384 -499 0
-385 -500 0
-386 -426 0
-387 -427 0
-388 -428 0
-389 -429 0
-390 -430 0
-391 -466 0
-392 -467 0
-393 -468 0
-394 -469 0
-395 -470 0
-391 -486 0
-392 -487 0
-393 -488 0
-394 -489 0
-395 -490 0
-396 -446 0
-397 -447 0
-398 -448 0
-399 -449 0
-400 -450 0
-396 -456 0
-397 -457 0
-398 -458 0
-399 -459 0
-400 -460 0
-396 -461 0
-397 -462 0
-398 -463 0
-399 -464 0
-400 -465 0
-401 -436 0
-402 -437 0
-403 -438 0
-404 -439 0
-405 -440 0
-401 -466 0
-402 -467 0
-403 -468 0
-404 -469 0
-405 -470 0
-411 -436 0
-412 -437 0
-413 -438 0
-414 -439 0
-415 -440 0
-411 -466 0
-412 -467 0
-413 -468 0
-414 -469 0
-415 -470 0
-411 -491 0
-412 -492 0
-413 -493 0
-414 -494 0
-415 -495 0
-416 -441 0
-417 -442 0
-418 -443 0
-419 -444 0
-420 -445 0
-416 -456 0
-417 -457 0
-418 -458 0
-419 -459 0
-420 -460 0
-421 -451 0
-422 -452 0
-423 -453 0
-424 -454 0
-425 -455 0
-421 -476 0
-422 -477 0
-423 -478 0
-424 -479 0
-425 -480 0
-421 -481 0
-422 -482 0
-423 -483 0
-424 -484 0
-425 -485 0
-426 -496 0
-427 -497 0
-428 -498 0
-429 -499 0
-430 -500 0
-431 -461 0
-432 -462 0
-433 -463 0
-434 -464 0
-435 -465 0
-441 -491 0
-442 -492 0
-443 -493 0
-444 -494 0
-445 -495 0
-446 -471 0
-447 -472 0
-448 -473 0
-449 -474 0
-450 -475 0
-456 -491 0
-457 -492 0
-458 -493 0
-459 -494 0
-460 -495 0
